
N = 8;
C = 8;

% dots
dots = 
  [| 0, b, 0, 0, 0, 0, 0, y,
   | 0, s, 0, 0, 0, 0, o, 0,
   | 0, 0, 0, 0, c, 0, g, 0,
   | 0, 0, 0, g, 0, 0, y, 0,
   | 0, 0, 0, b, r, 0, 0, 0,
   | 0, s, o, 0, 0, 0, r, 0,
   | 0, 0, 0, 0, c, 0, 0, 0,
   | p, 0, 0, 0, 0, 0, 0, p,
  |];
